Comps = {frontend0, frontend1, backend0, backend1, database0, database1};
mustComps = {frontend0, frontend1};
Flavs = {tiny, medium, large};
Nodes = {n1, n2, n3, n4};
CRes = {CPU, RAM, storage, bwIn, bwOut};
NRes = {ssl, fwall, encr, avail, latency};
Flav = [{medium, large}, {medium, large}, {tiny, medium, large}, {tiny, medium, large}, {large}, {large}];
Uses = array2d(CompFlavs, CompFlavs, [
	0,0,0,0,1,0,0,0,0,0,0,0,
	0,0,0,0,1,0,0,0,0,0,0,0,
	0,0,0,0,0,0,0,1,0,0,0,0,
	0,0,0,0,0,0,0,1,0,0,0,0,
	0,0,0,0,0,0,0,0,0,0,0,0,
	0,0,0,0,0,0,0,0,0,1,0,0,
	0,0,0,0,0,0,0,0,0,1,0,0,
	0,0,0,0,0,0,0,0,0,0,0,0,
	0,0,0,0,0,0,1,0,0,0,0,0,
	0,0,0,0,0,0,1,0,0,0,0,0,
	0,0,0,0,0,0,0,0,0,0,0,0,
	0,0,0,0,0,0,0,0,0,0,0,0,
]);
mayUse = array2d(Comps, CompFlavs, [
	0,0,0,0,0,0,0,0,0,0,0,0,
	0,0,0,0,0,0,0,0,0,0,0,0,
	1,1,0,0,0,0,0,0,1,1,0,0,
	0,0,1,1,0,1,1,0,0,0,0,0,
	0,0,0,0,0,0,0,0,0,0,0,0,
	0,0,0,0,0,0,0,0,0,0,0,0,
]);
MIN_RBOUNDS = 0;
MAX_RBOUNDS = 1000000;

worstBounds = [0, 0, 0, 0, 0, 0, 0, 0, 0, MAX_RBOUNDS];
bestBounds = [MAX_RBOUNDS - i | i in worstBounds];

comReq = array2d(CompFlavs, Res, [
  2, 371, 464, 588, 315, 1, 0, 1, 95, MAX_RBOUNDS,
  2, 252, 465, 572, 890, 1, 0, 0, 96, MAX_RBOUNDS,
  2, 500, 225, 287, 912, 0, 1, 0, 97, MAX_RBOUNDS,
  2, 232, 334, 235, 668, 1, 1, 0, 97, MAX_RBOUNDS,
  2, 222, 243, 711, 785, 1, 1, 1, 97, MAX_RBOUNDS,
  2, 371, 426, 943, 539, 0, 1, 0, 97, MAX_RBOUNDS,
  2, 481, 216, 468, 814, 1, 1, 0, 95, MAX_RBOUNDS,
  2, 208, 464, 545, 383, 1, 1, 1, 97, MAX_RBOUNDS,
  4, 302, 297, 515, 823, 1, 1, 1, 95, MAX_RBOUNDS,
  2, 391, 215, 450, 913, 1, 0, 1, 96, MAX_RBOUNDS,
  2, 315, 246, 813, 761, 1, 0, 1, 95, MAX_RBOUNDS,
  2, 491, 487, 268, 709, 1, 1, 0, 97, MAX_RBOUNDS,
]);

nodeCap = array2d(Nodes0, Res, [bestBounds[r] | r in Res] ++ [
  32, 112241, 887106, 12405, 13060, 1, 1, 1, 99, 0,
  32, 55272, 358539, 10498, 16033, 1, 1, 1, 99, 0,
  8, 117989, 533114, 20719, 12410, 1, 0, 1, 98, 0,
  16, 27527, 912818, 15693, 13056, 0, 1, 1, 99, 0,
]);

cost = array2d(Nodes0, Res, [
  0, 0, 0, 0, 0, 0, 0, 0, 0, 0, % no node
  10, 6, 15, 0, 0, 0, 0, 0, 0, 0,
  18, 6, 19, 0, 0, 0, 0, 0, 0, 0,
  17, 6, 22, 0, 0, 0, 0, 0, 0, 0,
  11, 7, 16, 0, 0, 0, 0, 0, 0, 0,
]);

carb = array2d(Nodes0, Res, [
  0, 0, 0, 0, 0, 0, 0, 0, 0, 0, % no node
  16, 22, 9, 0, 0, 0, 0, 0, 0, 0,
  5, 12, 18, 0, 0, 0, 0, 0, 0, 0,
  10, 11, 25, 0, 0, 0, 0, 0, 0, 0,
  46, 18, 13, 0, 0, 0, 0, 0, 0, 0,
]);

costBudget = 39818;
carbBudget = 48236;

depReq = array4d(Comps, Flavs, Comps, Res, [
  if c1 = frontend0 /\ c2 = backend0 /\ r = N(avail) then
    96
  elseif c1 = frontend0 /\ c2 = backend1 /\ r = N(avail) then
    95
  elseif c1 = frontend1 /\ c2 = backend1 /\ r = N(avail) then
    97
  elseif c1 = frontend1 /\ c2 = backend0 /\ r = N(avail) then
    97
  else
    worstBounds[r]
  endif | c1 in Comps, i in Flavs, c2 in Comps, r in Res]);

linkCap = array3d(Nodes0, Nodes0, Res, [
  if ni = 0 \/ nj = 0 then
    bestBounds[r]
  elseif ni = nj /\ r = N(avail) then
    nodeCap[ni,r]
  elseif {ni, nj} = {n1, n2} /\ r = N(avail) then
    98
  elseif {ni, nj} = {n2, n4} /\ r = N(avail) then
    98
  elseif {ni, nj} = {n1, n4} /\ r = N(avail) then
    98
  elseif {ni, nj} = {n2, n3} /\ r = N(avail) then
    99
  elseif {ni, nj} = {n1, n3} /\ r = N(avail) then
    98
  elseif {ni, nj} = {n3, n4} /\ r = N(avail) then
    98
  else
    worstBounds[r]
  endif | ni in Nodes0, nj in Nodes0, r in Res]);

imp = array2d(Comps, Flavs, [
  1, 4, 7,
  1, 4, 5,
  2, 4, 6,
  4, 5, 7,
  4, 7, 9,
  5, 8, 9,
]);

